objective value:                                   -4
t_n_22                                              1 	(obj:-1)
t_n_1172                                            1 	(obj:-1)
t_n_1562                                            1 	(obj:-1)
t_n_1853                                            1 	(obj:-1)
